NAME :  IRP
COMMENT : 
TYPE :  CVRP
DIMENSION : 	4
EDGE_WEIGHT_TYPE : 	EUC_2D
CAPACITY : 	190
NODE_COORD_SECTION
1	444	237
2	51	412
3	5	235
4	134	163
DEMAND_SECTION
1	0
2	43
3	79
4	86
DEPOT_SECTION
	1
	-1
EOF
